12° run output:
{
    "Function": "euclidB500.tsp",
    "Problem dimension": [
        418,
        44,
        209,
        473,
        259,
        195,
        46,
        65,
        91,
        412,
        322,
        269,
        103,
        13,
        279,
        471,
        82,
        365,
        433,
        405,
        40,
        165,
        309,
        311,
        398,
        366,
        213,
        202,
        333,
        48,
        122,
        254,
        318,
        443,
        397,
        379,
        171,
        320,
        243,
        130,
        263,
        77,
        98,
        232,
        207,
        387,
        132,
        415,
        187,
        133,
        135,
        201,
        11,
        411,
        281,
        355,
        211,
        434,
        350,
        368,
        395,
        204,
        197,
        391,
        487,
        439,
        21,
        246,
        492,
        69,
        53,
        474,
        280,
        26,
        205,
        106,
        341,
        441,
        22,
        364,
        310,
        107,
        452,
        423,
        220,
        194,
        159,
        336,
        252,
        150,
        116,
        29,
        472,
        407,
        52,
        94,
        460,
        326,
        396,
        184,
        5,
        229,
        302,
        127,
        390,
        261,
        413,
        28,
        66,
        129,
        377,
        385,
        144,
        363,
        143,
        468,
        50,
        62,
        188,
        335,
        76,
        262,
        93,
        89,
        223,
        456,
        274,
        1,
        386,
        403,
        60,
        401,
        410,
        14,
        440,
        420,
        142,
        445,
        126,
        68,
        258,
        307,
        392,
        242,
        428,
        225,
        459,
        271,
        490,
        248,
        356,
        409,
        221,
        85,
        257,
        33,
        482,
        208,
        38,
        317,
        469,
        198,
        210,
        451,
        268,
        155,
        173,
        358,
        25,
        175,
        479,
        431,
        488,
        465,
        399,
        57,
        437,
        72,
        163,
        264,
        121,
        228,
        20,
        256,
        481,
        154,
        483,
        357,
        32,
        372,
        125,
        285,
        8,
        87,
        119,
        88,
        383,
        236,
        134,
        429,
        362,
        314,
        251,
        31,
        289,
        478,
        174,
        112,
        270,
        113,
        417,
        315,
        373,
        343,
        470,
        214,
        63,
        408,
        340,
        337,
        419,
        152,
        328,
        260,
        10,
        86,
        128,
        267,
        162,
        83,
        303,
        6,
        158,
        190,
        454,
        494,
        272,
        191,
        12,
        275,
        462,
        338,
        18,
        193,
        382,
        156,
        215,
        293,
        141,
        287,
        233,
        448,
        276,
        352,
        461,
        312,
        450,
        153,
        249,
        110,
        466,
        196,
        424,
        164,
        266,
        166,
        330,
        245,
        104,
        222,
        499,
        416,
        438,
        216,
        101,
        498,
        496,
        304,
        55,
        148,
        241,
        435,
        345,
        17,
        81,
        234,
        430,
        371,
        324,
        199,
        240,
        239,
        463,
        244,
        375,
        306,
        224,
        235,
        354,
        73,
        182,
        151,
        109,
        292,
        120,
        19,
        421,
        131,
        45,
        47,
        176,
        179,
        105,
        92,
        277,
        59,
        183,
        316,
        347,
        436,
        250,
        3,
        35,
        348,
        74,
        111,
        160,
        447,
        265,
        231,
        61,
        283,
        301,
        75,
        96,
        70,
        467,
        319,
        145,
        238,
        381,
        27,
        247,
        339,
        37,
        313,
        325,
        115,
        79,
        331,
        34,
        138,
        64,
        458,
        16,
        477,
        181,
        344,
        367,
        99,
        157,
        286,
        237,
        388,
        203,
        402,
        284,
        376,
        15,
        97,
        80,
        7,
        491,
        406,
        90,
        43,
        497,
        290,
        400,
        359,
        349,
        380,
        49,
        78,
        170,
        485,
        185,
        253,
        299,
        124,
        444,
        140,
        327,
        137,
        219,
        378,
        192,
        149,
        449,
        200,
        464,
        172,
        67,
        305,
        273,
        446,
        167,
        389,
        422,
        56,
        334,
        30,
        353,
        480,
        346,
        36,
        226,
        139,
        475,
        24,
        294,
        168,
        217,
        476,
        404,
        114,
        393,
        178,
        486,
        136,
        23,
        255,
        296,
        206,
        489,
        108,
        332,
        291,
        212,
        394,
        100,
        495,
        321,
        54,
        58,
        4,
        9,
        323,
        308,
        342,
        95,
        71,
        51,
        146,
        360,
        39,
        2,
        298,
        278,
        442,
        189,
        118,
        218,
        230,
        351,
        295,
        426,
        161,
        180,
        361,
        300,
        374,
        123,
        227,
        42,
        425,
        329,
        484,
        297,
        288,
        169,
        455,
        186,
        41,
        370,
        432,
        0,
        493,
        147,
        84,
        384,
        117,
        453,
        282,
        369,
        102,
        427,
        457,
        414,
        177
    ],
    "Global Optimum": 0,
    "Algorithm": "Genetic algorithm",
    "Parameters": {
        "population": 30,
        "offspring": 30,
        "mutation probability": 0.002,
        "crossover probability": 0.9
    },
    "Fitness": 590157,
    "Solution": [
        418,
        44,
        209,
        473,
        259,
        195,
        46,
        65,
        91,
        412,
        322,
        269,
        103,
        13,
        279,
        471,
        82,
        365,
        433,
        405,
        40,
        165,
        309,
        311,
        398,
        366,
        213,
        202,
        333,
        48,
        122,
        254,
        318,
        443,
        397,
        379,
        171,
        320,
        243,
        130,
        263,
        77,
        98,
        232,
        207,
        387,
        132,
        415,
        187,
        133,
        135,
        201,
        11,
        411,
        281,
        355,
        211,
        434,
        350,
        368,
        395,
        204,
        197,
        391,
        487,
        439,
        21,
        246,
        492,
        69,
        53,
        474,
        280,
        26,
        205,
        106,
        341,
        441,
        22,
        364,
        310,
        107,
        452,
        423,
        220,
        194,
        159,
        336,
        252,
        150,
        116,
        29,
        472,
        407,
        52,
        94,
        460,
        326,
        396,
        184,
        5,
        229,
        302,
        127,
        390,
        261,
        413,
        28,
        66,
        129,
        377,
        385,
        144,
        363,
        143,
        468,
        50,
        62,
        188,
        335,
        76,
        262,
        93,
        89,
        223,
        456,
        274,
        1,
        386,
        403,
        60,
        401,
        410,
        14,
        440,
        420,
        142,
        445,
        126,
        68,
        258,
        307,
        392,
        242,
        428,
        225,
        459,
        271,
        490,
        248,
        356,
        409,
        221,
        85,
        257,
        33,
        482,
        208,
        38,
        317,
        469,
        198,
        210,
        451,
        268,
        155,
        173,
        358,
        25,
        175,
        479,
        431,
        488,
        465,
        399,
        57,
        437,
        72,
        163,
        264,
        121,
        228,
        20,
        256,
        481,
        154,
        483,
        357,
        32,
        372,
        125,
        285,
        8,
        87,
        119,
        88,
        383,
        236,
        134,
        429,
        362,
        314,
        251,
        31,
        289,
        478,
        174,
        112,
        270,
        113,
        417,
        315,
        373,
        343,
        470,
        214,
        63,
        408,
        340,
        337,
        419,
        152,
        328,
        260,
        10,
        86,
        128,
        267,
        162,
        83,
        303,
        6,
        158,
        190,
        454,
        494,
        272,
        191,
        12,
        275,
        462,
        338,
        18,
        193,
        382,
        156,
        215,
        293,
        141,
        287,
        233,
        448,
        276,
        352,
        461,
        312,
        450,
        153,
        249,
        110,
        466,
        196,
        424,
        164,
        266,
        166,
        330,
        245,
        104,
        222,
        499,
        416,
        438,
        216,
        101,
        498,
        496,
        304,
        55,
        148,
        241,
        435,
        345,
        17,
        81,
        234,
        430,
        371,
        324,
        199,
        240,
        239,
        463,
        244,
        375,
        306,
        224,
        235,
        354,
        73,
        182,
        151,
        109,
        292,
        120,
        19,
        421,
        131,
        45,
        47,
        176,
        179,
        105,
        92,
        277,
        59,
        183,
        316,
        347,
        436,
        250,
        3,
        35,
        348,
        74,
        111,
        160,
        447,
        265,
        231,
        61,
        283,
        301,
        75,
        96,
        70,
        467,
        319,
        145,
        238,
        381,
        27,
        247,
        339,
        37,
        313,
        325,
        115,
        79,
        331,
        34,
        138,
        64,
        458,
        16,
        477,
        181,
        344,
        367,
        99,
        157,
        286,
        237,
        388,
        203,
        402,
        284,
        376,
        15,
        97,
        80,
        7,
        491,
        406,
        90,
        43,
        497,
        290,
        400,
        359,
        349,
        380,
        49,
        78,
        170,
        485,
        185,
        253,
        299,
        124,
        444,
        140,
        327,
        137,
        219,
        378,
        192,
        149,
        449,
        200,
        464,
        172,
        67,
        305,
        273,
        446,
        167,
        389,
        422,
        56,
        334,
        30,
        353,
        480,
        346,
        36,
        226,
        139,
        475,
        24,
        294,
        168,
        217,
        476,
        404,
        114,
        393,
        178,
        486,
        136,
        23,
        255,
        296,
        206,
        489,
        108,
        332,
        291,
        212,
        394,
        100,
        495,
        321,
        54,
        58,
        4,
        9,
        323,
        308,
        342,
        95,
        71,
        51,
        146,
        360,
        39,
        2,
        298,
        278,
        442,
        189,
        118,
        218,
        230,
        351,
        295,
        426,
        161,
        180,
        361,
        300,
        374,
        123,
        227,
        42,
        425,
        329,
        484,
        297,
        288,
        169,
        455,
        186,
        41,
        370,
        432,
        0,
        493,
        147,
        84,
        384,
        117,
        453,
        282,
        369,
        102,
        427,
        457,
        414,
        177
    ],
    "Nb of functions evaluations": 200010,
    "Computational time in seconds": 994.0960855484009,
    "Stopping criterion in evaluations": 200000
}